20
 N2C3W4_A 
 150 100 0 
99
99
98
98
97
97
96
96
96
96
95
94
93
92
91
89
87
87
87
86
85
84
84
83
83
83
82
81
80
79
79
79
77
77
76
74
74
74
73
72
72
71
71
69
69
69
66
65
64
64
64
63
62
61
60
59
57
57
57
56
56
55
54
53
52
52
51
51
49
47
47
46
46
46
46
46
46
44
43
43
43
41
40
40
39
39
38
36
36
35
34
34
33
32
32
31
31
30
30
30
 N2C3W4_B 
 150 100 0 
100
99
99
98
98
97
95
95
95
94
94
94
94
93
93
92
91
90
90
90
90
89
89
88
86
85
85
84
83
83
82
81
81
80
79
79
77
76
76
73
72
71
71
71
69
69
68
67
67
63
61
61
61
60
60
59
58
57
57
57
57
56
56
56
56
56
55
53
53
53
51
51
49
48
48
47
47
47
47
46
46
45
45
44
44
43
43
42
42
39
38
38
37
36
35
33
32
31
30
30
 N2C3W4_C 
 150 100 0 
99
99
98
97
96
93
92
92
91
91
91
90
90
90
89
88
88
87
85
85
84
84
84
82
80
80
80
80
78
77
76
75
74
73
72
70
70
69
68
68
67
66
65
65
65
65
64
62
59
59
59
58
58
57
57
56
56
56
55
55
54
51
51
50
49
48
46
46
46
46
46
46
45
44
44
41
41
41
41
40
40
39
39
38
37
36
36
36
35
35
35
35
34
34
34
34
32
32
31
30
 N2C3W4_D 
 150 100 0 
100
100
99
99
99
99
98
98
98
97
97
97
94
94
93
93
92
90
89
88
87
86
85
83
83
82
81
80
79
78
77
76
75
73
73
73
73
72
72
71
71
71
70
68
67
66
65
64
64
64
64
63
62
62
62
61
57
56
55
55
54
53
53
53
53
52
52
52
51
51
49
49
48
48
45
45
45
45
44
44
43
42
41
41
40
40
38
35
34
34
34
34
33
33
32
32
32
30
30
30
 N2C3W4_E 
 150 100 0 
100
100
99
99
98
98
98
96
96
95
94
94
93
93
92
92
91
91
90
89
88
88
88
88
88
87
86
86
85
85
85
85
84
84
84
83
83
83
81
80
80
80
79
77
77
75
75
74
72
72
69
68
68
66
65
65
64
64
63
61
61
60
60
58
58
58
58
57
57
56
56
55
54
49
49
47
47
47
46
45
44
43
42
42
41
40
40
36
34
34
33
33
32
32
32
32
32
31
30
30
 N2C3W4_F 
 150 100 0 
100
100
99
98
97
96
94
93
92
91
90
89
89
87
87
85
85
85
84
84
84
83
83
83
83
83
81
81
80
80
79
79
79
78
78
77
76
75
74
74
74
73
73
71
71
71
71
70
69
69
68
68
68
66
66
65
64
63
63
63
62
61
59
58
58
57
56
56
56
56
55
52
50
49
47
46
46
45
45
43
43
43
42
42
41
41
38
37
37
36
36
35
35
34
34
34
33
31
31
30
 N2C3W4_G 
 150 100 0 
100
100
99
98
97
97
95
94
94
94
93
93
91
90
90
89
88
88
86
85
85
84
84
84
82
82
82
81
81
81
80
75
75
75
75
74
74
74
73
72
71
70
69
69
69
68
67
65
64
64
63
63
63
63
61
61
59
58
58
58
56
56
55
54
53
53
53
51
50
49
48
48
46
46
44
44
44
43
43
43
43
42
42
42
41
41
40
40
39
39
39
39
38
36
35
35
35
33
32
32
 N2C3W4_H 
 150 100 0 
100
97
97
97
95
95
95
94
94
94
94
93
93
93
92
92
90
89
86
85
83
82
82
81
79
78
77
76
75
74
74
74
74
74
73
73
72
71
71
71
70
69
68
66
66
65
64
64
64
63
63
62
62
62
61
61
61
59
59
59
58
58
57
57
55
54
52
50
49
48
47
46
46
45
45
44
44
44
42
42
41
41
40
39
39
39
37
37
36
36
36
35
35
35
32
32
32
31
30
30
 N2C3W4_I 
 150 100 0 
99
99
99
99
98
97
97
92
92
91
91
90
89
89
88
88
88
86
85
84
83
83
81
80
80
80
80
80
79
79
78
77
77
77
77
76
76
75
74
72
72
72
71
70
69
69
69
67
67
66
66
66
66
65
64
61
60
59
59
59
58
57
56
56
54
53
52
51
51
51
50
50
50
50
49
48
48
47
47
47
45
43
43
43
42
41
41
38
37
37
36
35
33
32
32
32
31
31
30
30
 N2C3W4_J 
 150 100 0 
100
100
100
99
99
99
99
98
98
96
96
95
95
93
92
92
91
91
90
88
85
84
84
82
81
80
80
76
75
74
73
73
72
71
71
70
69
69
68
67
65
65
65
64
64
64
64
63
62
61
61
61
60
57
57
56
56
54
52
52
51
51
51
50
48
48
48
47
46
46
46
45
45
45
44
44
44
43
43
43
42
42
41
41
41
41
39
39
38
37
36
36
36
34
34
33
33
32
32
31
 N2C3W4_K 
 150 100 0 
100
100
99
98
96
96
95
94
94
94
93
93
93
93
91
91
91
90
90
89
89
87
87
87
87
85
84
84
84
83
82
81
81
81
80
79
79
78
78
77
77
77
75
75
74
74
74
74
69
68
68
67
67
65
65
64
63
61
59
59
58
58
58
58
57
56
55
55
55
54
54
53
53
52
51
50
50
50
49
49
48
48
48
48
47
47
43
43
42
40
40
39
37
37
35
34
34
33
31
30
 N2C3W4_L 
 150 100 0 
99
97
96
95
94
93
92
92
92
91
90
88
88
88
86
86
86
86
85
85
85
85
85
83
83
83
82
81
81
80
79
78
76
76
75
75
74
74
74
74
74
73
73
72
71
70
70
70
69
68
67
66
65
65
64
64
63
61
61
60
59
58
58
58
57
57
57
56
56
56
55
54
54
53
53
53
53
50
48
48
48
46
46
46
46
45
43
43
42
41
40
39
37
35
35
34
34
31
31
30
 N2C3W4_M 
 150 100 0 
100
100
100
99
98
98
95
92
91
91
89
89
89
89
88
88
87
86
86
85
85
84
84
83
82
82
81
81
81
80
79
79
79
78
78
78
77
76
75
75
74
74
73
72
72
70
69
68
68
67
66
65
64
63
62
62
62
60
59
58
56
56
55
53
53
53
51
51
50
50
46
44
44
44
44
43
42
42
41
41
40
39
39
38
37
37
36
36
36
36
35
35
35
34
33
33
33
32
32
30
 N2C3W4_N 
 150 100 0 
100
99
99
97
96
95
95
94
94
94
93
87
86
85
85
85
85
85
85
85
84
84
83
83
82
81
81
80
80
80
80
80
80
79
79
78
77
77
76
76
75
75
75
74
72
70
69
68
68
67
67
65
64
64
64
63
62
60
59
59
59
58
58
58
57
57
56
56
54
54
52
51
51
48
48
48
47
47
47
46
45
44
44
42
41
41
39
38
38
37
36
36
36
35
34
33
33
33
32
31
 N2C3W4_O 
 150 100 0 
98
98
98
97
97
96
96
96
96
94
94
93
93
93
92
92
92
91
91
90
90
89
88
87
87
87
85
85
83
78
77
77
77
77
76
75
74
73
71
71
70
70
70
70
70
69
68
68
65
65
64
63
63
61
61
61
61
60
60
59
59
59
59
58
58
57
54
54
52
52
52
51
49
49
49
48
47
47
47
45
45
45
43
42
42
41
41
40
40
40
40
39
38
37
36
35
34
32
31
30
 N2C3W4_P 
 150 100 0 
100
99
99
98
96
96
96
95
94
92
91
90
90
89
89
88
88
88
88
86
86
85
85
85
84
83
83
83
83
82
82
81
80
80
79
79
77
77
77
75
75
74
72
71
70
70
70
69
69
69
68
68
67
65
64
64
62
62
61
59
59
57
57
54
54
54
54
53
53
52
50
50
49
48
48
48
46
43
42
42
42
39
39
38
38
37
37
37
36
36
35
34
34
34
34
33
32
32
30
30
 N2C3W4_Q 
 150 100 0 
100
99
98
98
98
97
97
97
96
96
96
95
95
95
94
93
93
93
92
91
91
88
88
87
87
86
85
85
84
82
81
79
79
79
78
78
77
77
76
76
75
73
73
73
73
72
72
72
71
70
69
68
67
66
65
65
64
63
62
61
61
60
60
59
59
57
56
55
54
54
53
53
52
51
50
50
50
49
49
48
48
47
47
47
46
45
45
45
44
38
35
35
35
34
34
34
33
33
31
31
 N2C3W4_R 
 150 100 0 
100
98
98
98
98
98
97
97
96
95
95
93
92
90
89
87
86
86
84
84
84
84
80
80
80
79
79
78
77
74
73
73
72
72
72
71
71
71
70
69
69
69
68
67
66
65
64
64
63
63
62
60
57
57
57
55
55
55
54
53
53
52
52
52
51
51
50
49
47
46
46
45
44
44
44
43
43
43
42
41
41
41
41
40
40
39
39
39
39
38
38
37
36
35
35
34
32
31
30
30
 N2C3W4_S 
 150 100 0 
100
99
98
97
97
96
95
94
94
93
92
91
90
90
88
88
88
87
84
81
80
80
79
79
76
76
75
75
75
73
73
71
71
71
70
70
70
69
69
67
67
66
65
64
64
62
61
60
60
59
59
59
59
58
56
55
54
54
53
53
53
51
51
50
49
48
48
48
47
47
47
46
46
45
45
45
45
45
44
44
44
42
42
41
41
40
39
38
37
34
34
34
33
33
32
32
31
31
31
30
 N2C3W4_T 
 150 100 0 
100
100
99
99
97
97
95
95
95
94
94
93
93
93
92
91
91
91
91
91
89
89
86
86
85
85
84
82
81
81
79
79
78
76
75
74
74
74
74
73
73
71
70
70
69
69
67
67
67
66
66
66
66
65
65
64
64
63
63
62
61
61
61
60
60
58
57
54
54
53
53
53
52
52
51
50
48
48
47
46
46
46
45
44
42
40
39
39
39
37
36
35
34
33
33
33
32
32
30
30
